14° run output:
{
    "Function": "ClusterA500.tsp",
    "Problem dimension": [
        394,
        461,
        10,
        386,
        138,
        256,
        440,
        365,
        335,
        418,
        339,
        203,
        487,
        178,
        43,
        271,
        17,
        147,
        77,
        476,
        29,
        251,
        382,
        305,
        310,
        217,
        67,
        384,
        371,
        345,
        346,
        264,
        389,
        216,
        33,
        240,
        61,
        8,
        270,
        63,
        415,
        286,
        188,
        456,
        254,
        23,
        105,
        113,
        205,
        47,
        7,
        164,
        269,
        156,
        234,
        165,
        94,
        263,
        481,
        378,
        262,
        390,
        199,
        155,
        224,
        45,
        18,
        44,
        204,
        124,
        467,
        233,
        446,
        213,
        323,
        52,
        479,
        490,
        412,
        11,
        375,
        27,
        431,
        354,
        341,
        84,
        71,
        74,
        448,
        450,
        125,
        108,
        324,
        266,
        359,
        243,
        410,
        472,
        24,
        212,
        499,
        468,
        130,
        32,
        301,
        126,
        406,
        163,
        157,
        498,
        247,
        362,
        321,
        366,
        89,
        120,
        258,
        492,
        485,
        174,
        452,
        4,
        483,
        274,
        297,
        181,
        255,
        123,
        48,
        167,
        237,
        140,
        459,
        430,
        494,
        96,
        136,
        90,
        146,
        340,
        83,
        95,
        393,
        293,
        28,
        53,
        168,
        30,
        16,
        285,
        278,
        302,
        232,
        333,
        9,
        315,
        1,
        225,
        78,
        189,
        291,
        267,
        356,
        88,
        259,
        403,
        436,
        477,
        421,
        239,
        352,
        170,
        111,
        471,
        38,
        475,
        488,
        250,
        427,
        150,
        191,
        179,
        153,
        272,
        145,
        236,
        414,
        69,
        313,
        473,
        311,
        495,
        426,
        288,
        248,
        295,
        101,
        169,
        400,
        172,
        134,
        419,
        249,
        327,
        220,
        93,
        422,
        241,
        465,
        82,
        97,
        160,
        59,
        404,
        443,
        268,
        474,
        398,
        244,
        176,
        478,
        86,
        411,
        304,
        118,
        99,
        417,
        12,
        367,
        222,
        374,
        283,
        336,
        159,
        486,
        429,
        416,
        408,
        330,
        318,
        344,
        385,
        458,
        381,
        316,
        35,
        425,
        20,
        215,
        493,
        227,
        238,
        439,
        322,
        141,
        142,
        166,
        79,
        368,
        257,
        133,
        39,
        72,
        223,
        173,
        289,
        376,
        13,
        317,
        50,
        379,
        193,
        98,
        360,
        331,
        395,
        484,
        87,
        282,
        2,
        312,
        139,
        177,
        370,
        373,
        275,
        229,
        433,
        151,
        66,
        152,
        437,
        357,
        158,
        230,
        207,
        463,
        187,
        349,
        42,
        482,
        245,
        85,
        380,
        214,
        447,
        149,
        334,
        190,
        80,
        26,
        132,
        201,
        34,
        6,
        242,
        320,
        106,
        195,
        363,
        348,
        460,
        196,
        329,
        273,
        438,
        299,
        277,
        392,
        496,
        314,
        308,
        91,
        328,
        221,
        457,
        64,
        399,
        14,
        21,
        489,
        491,
        219,
        306,
        171,
        424,
        19,
        58,
        284,
        231,
        280,
        107,
        92,
        428,
        449,
        154,
        387,
        372,
        455,
        466,
        407,
        131,
        444,
        290,
        54,
        127,
        325,
        100,
        453,
        298,
        265,
        409,
        31,
        445,
        200,
        401,
        388,
        62,
        161,
        208,
        41,
        294,
        469,
        351,
        68,
        497,
        37,
        15,
        218,
        183,
        309,
        148,
        162,
        185,
        3,
        228,
        40,
        292,
        209,
        144,
        226,
        364,
        122,
        260,
        246,
        22,
        287,
        184,
        0,
        369,
        281,
        182,
        441,
        5,
        36,
        420,
        143,
        432,
        76,
        206,
        451,
        73,
        353,
        343,
        253,
        454,
        377,
        397,
        128,
        252,
        198,
        480,
        300,
        276,
        104,
        337,
        197,
        464,
        192,
        210,
        109,
        180,
        55,
        114,
        342,
        332,
        112,
        235,
        435,
        110,
        462,
        70,
        116,
        402,
        434,
        25,
        279,
        115,
        129,
        211,
        319,
        75,
        423,
        202,
        60,
        51,
        396,
        46,
        296,
        81,
        355,
        413,
        56,
        338,
        383,
        117,
        119,
        470,
        49,
        347,
        102,
        175,
        103,
        326,
        65,
        307,
        194,
        137,
        303,
        261,
        361,
        358,
        405,
        121,
        135,
        57,
        186,
        350,
        442,
        391
    ],
    "Global Optimum": 0,
    "Algorithm": "Genetic algorithm",
    "Parameters": {
        "population": 30,
        "offspring": 30,
        "mutation probability": 0.002,
        "crossover probability": 0.9
    },
    "Fitness": 570021,
    "Solution": [
        394,
        461,
        10,
        386,
        138,
        256,
        440,
        365,
        335,
        418,
        339,
        203,
        487,
        178,
        43,
        271,
        17,
        147,
        77,
        476,
        29,
        251,
        382,
        305,
        310,
        217,
        67,
        384,
        371,
        345,
        346,
        264,
        389,
        216,
        33,
        240,
        61,
        8,
        270,
        63,
        415,
        286,
        188,
        456,
        254,
        23,
        105,
        113,
        205,
        47,
        7,
        164,
        269,
        156,
        234,
        165,
        94,
        263,
        481,
        378,
        262,
        390,
        199,
        155,
        224,
        45,
        18,
        44,
        204,
        124,
        467,
        233,
        446,
        213,
        323,
        52,
        479,
        490,
        412,
        11,
        375,
        27,
        431,
        354,
        341,
        84,
        71,
        74,
        448,
        450,
        125,
        108,
        324,
        266,
        359,
        243,
        410,
        472,
        24,
        212,
        499,
        468,
        130,
        32,
        301,
        126,
        406,
        163,
        157,
        498,
        247,
        362,
        321,
        366,
        89,
        120,
        258,
        492,
        485,
        174,
        452,
        4,
        483,
        274,
        297,
        181,
        255,
        123,
        48,
        167,
        237,
        140,
        459,
        430,
        494,
        96,
        136,
        90,
        146,
        340,
        83,
        95,
        393,
        293,
        28,
        53,
        168,
        30,
        16,
        285,
        278,
        302,
        232,
        333,
        9,
        315,
        1,
        225,
        78,
        189,
        291,
        267,
        356,
        88,
        259,
        403,
        436,
        477,
        421,
        239,
        352,
        170,
        111,
        471,
        38,
        475,
        488,
        250,
        427,
        150,
        191,
        179,
        153,
        272,
        145,
        236,
        414,
        69,
        313,
        473,
        311,
        495,
        426,
        288,
        248,
        295,
        101,
        169,
        400,
        172,
        134,
        419,
        249,
        327,
        220,
        93,
        422,
        241,
        465,
        82,
        97,
        160,
        59,
        404,
        443,
        268,
        474,
        398,
        244,
        176,
        478,
        86,
        411,
        304,
        118,
        99,
        417,
        12,
        367,
        222,
        374,
        283,
        336,
        159,
        486,
        429,
        416,
        408,
        330,
        318,
        344,
        385,
        458,
        381,
        316,
        35,
        425,
        20,
        215,
        493,
        227,
        238,
        439,
        322,
        141,
        142,
        166,
        79,
        368,
        257,
        133,
        39,
        72,
        223,
        173,
        289,
        376,
        13,
        317,
        50,
        379,
        193,
        98,
        360,
        331,
        395,
        484,
        87,
        282,
        2,
        312,
        139,
        177,
        370,
        373,
        275,
        229,
        433,
        151,
        66,
        152,
        437,
        357,
        158,
        230,
        207,
        463,
        187,
        349,
        42,
        482,
        245,
        85,
        380,
        214,
        447,
        149,
        334,
        190,
        80,
        26,
        132,
        201,
        34,
        6,
        242,
        320,
        106,
        195,
        363,
        348,
        460,
        196,
        329,
        273,
        438,
        299,
        277,
        392,
        496,
        314,
        308,
        91,
        328,
        221,
        457,
        64,
        399,
        14,
        21,
        489,
        491,
        219,
        306,
        171,
        424,
        19,
        58,
        284,
        231,
        280,
        107,
        92,
        428,
        449,
        154,
        387,
        372,
        455,
        466,
        407,
        131,
        444,
        290,
        54,
        127,
        325,
        100,
        453,
        298,
        265,
        409,
        31,
        445,
        200,
        401,
        388,
        62,
        161,
        208,
        41,
        294,
        469,
        351,
        68,
        497,
        37,
        15,
        218,
        183,
        309,
        148,
        162,
        185,
        3,
        228,
        40,
        292,
        209,
        144,
        226,
        364,
        122,
        260,
        246,
        22,
        287,
        184,
        0,
        369,
        281,
        182,
        441,
        5,
        36,
        420,
        143,
        432,
        76,
        206,
        451,
        73,
        353,
        343,
        253,
        454,
        377,
        397,
        128,
        252,
        198,
        480,
        300,
        276,
        104,
        337,
        197,
        464,
        192,
        210,
        109,
        180,
        55,
        114,
        342,
        332,
        112,
        235,
        435,
        110,
        462,
        70,
        116,
        402,
        434,
        25,
        279,
        115,
        129,
        211,
        319,
        75,
        423,
        202,
        60,
        51,
        396,
        46,
        296,
        81,
        355,
        413,
        56,
        338,
        383,
        117,
        119,
        470,
        49,
        347,
        102,
        175,
        103,
        326,
        65,
        307,
        194,
        137,
        303,
        261,
        361,
        358,
        405,
        121,
        135,
        57,
        186,
        350,
        442,
        391
    ],
    "Nb of functions evaluations": 400020,
    "Computational time in seconds": 1777.7100636959076,
    "Stopping criterion in evaluations": 400000
}